HeurLpBased/logs/randomGMKP_1.txt
CPXPARAM_Read_DataCheck                          1
CPXPARAM_Threads                                 1
CPXPARAM_TimeLimit                               600

Iteration log . . .
Iteration:     1   Dual objective     =          1298.000000
CPLEX Error  3003: Not a mixed-integer problem.
